NAME : u1060.tsp.opt.tour
COMMENT : [alpha=0.1, beta=1.0, q=0.99, pheromonePersistence=0.12, numAgents=15]
ERROR% : 0.17448035
SEED : 1461246187669
TYPE : TOUR
DIMENSION : 224485
TOUR_SECTION
596
597
598
452
451
446
599
600
445
444
443
440
439
438
601
602
603
605
604
606
607
609
608
671
683
684
685
686
687
688
689
690
704
705
703
702
706
707
708
722
721
720
709
710
711
712
713
714
715
719
718
717
716
678
679
677
676
680
681
682
675
674
672
673
633
634
635
669
670
668
667
665
658
666
656
657
655
659
654
652
651
650
648
646
647
645
649
653
660
661
662
663
664
643
642
644
641
640
639
638
637
636
631
630
629
632
628
627
625
626
622
623
624
618
617
616
615
614
612
613
619
620
621
610
611
437
436
434
435
433
432
431
430
429
428
402
401
403
400
399
398
397
404
405
396
395
394
393
392
391
274
275
276
389
390
279
280
278
277
269
273
270
271
272
268
267
196
197
198
200
199
195
194
193
192
191
190
189
188
187
185
186
184
183
182
181
180
179
178
177
176
175
174
173
172
171
170
169
168
167
164
163
162
161
159
160
166
165
156
158
157
155
154
153
152
151
150
149
148
147
146
145
144
143
142
141
140
139
138
133
134
135
136
137
127
126
125
124
129
128
130
131
132
885
887
886
884
883
888
114
112
113
115
116
120
121
118
119
117
111
109
110
889
882
881
880
873
874
878
879
877
876
875
870
872
871
869
868
867
215
216
214
213
212
211
210
206
205
204
203
202
201
207
208
209
217
218
866
865
864
863
862
861
919
921
922
920
923
924
925
927
926
918
917
916
915
914
913
912
908
911
910
909
907
905
904
906
903
902
900
901
895
897
899
898
896
894
893
891
890
892
93
94
99
98
97
95
96
108
107
106
105
104
103
102
101
19
18
17
20
13
14
16
15
123
122
9
8
7
6
5
2
3
1
4
1060
1059
1058
1057
1056
1055
1052
1051
1054
1053
10
11
12
30
31
32
29
28
27
26
21
22
23
24
25
33
34
36
35
41
40
42
43
44
45
46
48
47
85
84
100
87
86
88
92
91
90
89
83
49
50
51
52
53
54
39
38
37
1039
1040
1041
1042
1044
1043
1050
1049
1048
1047
1046
1045
1038
1037
1036
1031
1032
1033
1035
1034
57
56
58
59
55
61
60
62
63
66
65
64
1029
1030
1028
1019
1027
1026
1021
1010
1007
1022
1025
1023
1024
1006
1004
1005
1003
1008
1009
1001
1012
1011
1020
1018
1017
1016
1013
1015
1014
1000
1002
999
998
997
996
995
994
989
988
987
985
983
981
982
974
973
972
970
971
975
976
977
978
979
980
984
986
990
991
992
993
67
68
69
70
71
72
73
74
75
76
77
81
82
78
79
80
958
959
957
960
961
962
963
965
964
949
950
956
955
951
954
952
953
928
930
931
929
932
933
934
947
946
945
948
966
969
968
967
943
944
942
941
940
936
935
938
937
939
838
836
837
820
819
839
841
840
243
241
242
244
246
245
247
240
239
238
237
231
230
228
229
853
843
842
844
845
846
852
847
848
849
850
851
855
854
227
226
225
856
857
860
858
859
220
219
221
222
223
224
232
233
234
261
260
259
262
263
258
257
256
265
264
266
254
255
253
252
250
235
236
251
249
248
314
313
315
308
309
304
303
301
302
320
319
318
306
305
307
316
317
816
817
815
814
818
821
835
822
823
824
834
833
827
828
829
830
832
831
826
825
809
808
806
807
810
811
812
813
334
332
331
333
335
336
337
338
341
340
339
328
329
330
325
324
323
322
321
326
327
351
350
352
354
353
363
364
365
370
372
373
371
296
297
299
300
298
295
294
293
290
291
292
289
288
287
312
310
311
286
285
284
283
282
281
374
375
376
377
378
379
380
381
382
383
384
385
386
387
388
406
407
408
409
410
411
412
413
420
421
422
423
415
414
419
416
417
418
425
424
426
427
441
442
448
447
449
450
458
459
457
456
559
558
560
561
557
562
563
564
565
566
567
568
572
573
574
575
576
737
738
545
546
548
547
544
543
542
541
540
549
550
551
552
553
554
555
556
460
461
462
463
464
465
467
468
469
470
466
473
471
472
474
483
482
475
476
477
478
480
481
479
526
527
528
529
530
531
533
532
525
524
523
522
521
517
515
516
520
519
518
503
504
505
514
512
513
506
511
510
509
508
507
499
500
501
502
498
497
496
495
494
493
491
492
484
485
486
487
488
489
490
368
369
367
366
359
360
361
362
358
357
356
355
349
345
346
348
347
344
342
343
805
804
803
802
801
800
799
797
798
796
795
794
793
792
791
790
789
788
787
786
785
784
783
782
781
780
779
775
774
773
772
771
776
778
777
768
770
769
767
766
765
764
763
762
761
760
759
758
757
756
755
754
753
752
751
750
535
534
539
536
537
538
749
748
747
746
745
744
743
742
741
740
739
733
732
731
730
734
735
736
578
577
579
580
581
585
588
587
586
584
583
582
698
726
727
729
728
725
724
723
700
699
701
691
692
693
694
695
696
697
591
590
589
569
570
571
455
454
453
595
592
593
594
-1
EOF
